# Objective value = 3.9479590000000161e+02
xt_17 0
yt_17 0
s_0 0
xt_19 0
yt_19 0
s_1 0
s_2 0
xt_23 0
yt_23 0
s_3 0
xt_24 0
yt_24 0
s_4 0
s_5 0
s_6 0
s_7 0
s_8 0
s_9 0
s_10 0
s_11 0
xt_26 0
yt_26 0
s_12 0
xt_27 0
yt_27 0
s_13 0
s_14 0
s_15 0
xt_32 0
yt_32 0
s_16 0
xt_35 0
yt_35 0
s_17 0
s_18 0
xt_36 0
yt_36 0
s_19 0
xt_37 0
yt_37 0
s_20 0
s_21 0
s_22 0
s_23 0
s_24 0
s_25 0
s_26 0
s_27 0
s_28 0
s_29 0
s_30 0
xt_39 0.1
yt_39 0.1
s_31 6.5200000000001523e-01
s_32 8.4600000000006048e-01
s_33 0
s_34 0
xt_44 0
yt_44 0
s_35 0
s_36 1.0490000000001487e-01
s_37 0
s_38 0
s_39 0
s_40 0
s_41 0
xt_46 0
yt_46 0
s_42 0
xt_47 0.1
yt_47 0
s_43 0
s_44 0
s_45 1.1990000000001544e-01
s_46 0
xt_48 0
yt_48 0
s_47 0
s_48 0
xt_49 0
yt_49 0
s_49 0
s_50 1.0130000000000052e+00
s_51 1.9100000000000250e-01
s_52 0
s_53 0
xt_50 0
yt_50 0
s_54 0
s_55 0
s_56 0
xt_51 0
yt_51 9.2999999999975103e-02
s_57 0
s_58 0
s_59 0
s_60 0
s_61 0
s_62 0
s_63 0
s_64 0
xt_52 0
yt_52 0
s_65 0
xt_56 0
yt_56 0
s_66 0
xt_61 0
yt_61 0
s_67 0
xt_62 0
yt_62 0
s_68 0
xt_68 0
yt_68 0
s_69 0
s_70 0
s_71 0
xt_72 0
yt_72 0
s_72 0
s_73 0
s_74 0
xt_74 0
yt_74 0
s_75 0
xt_76 0
yt_76 0
s_76 0
s_77 0
s_78 0
s_79 0
s_80 0
xt_77 0
yt_77 0
s_81 0
s_82 0
s_83 0
xt_78 0
yt_78 0
s_84 0
s_85 0
xt_82 0
yt_82 0
s_86 0
s_87 0
s_88 0
xt_83 0
yt_83 0
s_89 0
s_90 0
s_91 0
xt_84 0
yt_84 0
s_92 0
s_93 0
xt_85 0
yt_85 0
s_94 0
s_95 0
xt_86 0
yt_86 0
s_96 0
s_97 0
s_98 0
s_99 0
xt_89 0
yt_89 0
s_100 0
xt_91 0
yt_91 0
s_101 0
xt_94 0
yt_94 0
s_102 0
s_103 0
xt_106 0
yt_106 0
s_104 0
s_105 0
s_106 0
s_107 0
s_108 0
s_109 0
s_110 0
s_111 0
s_112 0
s_113 0
s_114 0
s_115 0
s_116 0
s_117 0
s_118 0
s_119 0
s_120 0
s_121 0
xt_108 0
yt_108 0
s_122 0
s_123 0
xt_111 0
yt_111 0
s_124 0
xt_112 0
yt_112 0
s_125 0
s_126 0
s_127 0
s_128 0
s_129 0
s_130 0
s_131 0
xt_116 0
yt_116 0
s_132 0
xt_117 0
yt_117 0
s_133 0
xt_118 0
yt_118 0
s_134 0
s_135 0
s_136 0
s_137 0
s_138 0
xt_120 0.1
yt_120 0.1
s_139 1.0193000000000012e+01
s_140 6.9420000000000357e+00
s_141 8.4600000000003206e-01
xt_129 0
yt_129 0
s_142 0
s_143 0
xt_130 0
yt_130 0
s_144 0
xt_133 0
yt_133 0
s_145 0
xt_134 0
yt_134 0
s_146 0
s_147 0
xt_135 0
yt_135 0
s_148 0
s_149 0
s_150 0
s_151 0
xt_136 0
yt_136 0
s_152 0
s_153 0
s_154 0
s_155 0
s_156 0
s_157 0
s_158 0
xt_137 0
yt_137 7.2999999999993292e-02
s_159 2.0000000000038654e-02
s_160 0
s_161 0
s_162 0
s_163 0
xt_138 0
yt_138 0
s_164 0
s_165 0
s_166 0
s_167 0
xt_139 0.1
yt_139 0
s_168 0
s_169 0
s_170 0
s_171 1.1899999999998556e-01
xt_140 0
yt_140 0
s_172 0
s_173 0
s_174 0
s_175 0
xt_141 0
yt_141 0
s_176 0
s_177 0
s_178 1.8989999999999441e-01
xt_142 0
yt_142 0
s_179 0
s_180 0
s_181 0
xt_143 0
yt_143 0
s_182 4.2089999999998895e-01
s_183 0
s_184 0
s_185 1.5399999999999636e-01
s_186 0
xt_146 0
yt_146 0
s_187 0
s_188 0
s_189 0
s_190 0
s_191 0
s_192 0
s_193 0
s_194 0
xt_147 0
yt_147 0
s_195 0
s_196 0
xt_148 4.0000000001327862e-04
yt_148 0
s_197 1.1799999999999500e-01
s_198 0
s_199 0
s_200 0
s_201 0
xt_149 0
yt_149 0
s_202 0
s_203 0
s_204 0
s_205 0
xt_150 0
yt_150 9.2600000000004457e-02
s_206 0
s_207 0
s_208 0
xt_151 0
yt_151 0
s_209 0
s_210 0
s_211 0
s_212 0
xt_152 0
yt_152 9.2500000000015348e-02
s_213 0
s_214 0
xt_153 0
yt_153 0
s_215 0
s_216 0
xt_154 0
yt_154 0
s_217 0
s_218 0
s_219 0
s_220 0
xt_155 0
yt_155 0
s_221 0
s_222 0
xt_156 0
yt_156 0
s_223 0
xt_159 0
yt_159 0
s_224 0
xt_160 0.1
yt_160 0
s_225 0
s_226 0
s_227 1.1999999999997613e-01
xt_161 0
yt_161 0
s_228 0
s_229 0
s_230 0
xt_162 0
yt_162 0
s_231 3.0000000000995897e-04
s_232 0
s_233 0
s_234 2.2289999999999566e-01
s_235 0
xt_163 0
yt_163 0
s_236 0
xt_164 0.1
yt_164 0
s_237 0
s_238 1.3358000000000004e+01
s_239 0
s_240 3.4999999999999432e-01
s_241 0
s_242 0
s_243 0
s_244 0
s_245 0
s_246 0
s_247 3.4999999999999432e-01
s_248 0
s_249 0
s_250 1.9000000000005457e-02
s_251 0
s_252 0
s_253 0
s_254 0
s_255 0
s_256 0
s_257 0
s_258 0
s_259 0
s_260 0
xt_165 0
yt_165 0
s_261 0
s_262 0
s_263 0
s_264 0
s_265 0
xt_166 0
yt_166 9.2500000000001137e-02
s_266 0
s_267 0
s_268 0
xt_167 0
yt_167 0
s_269 0
xt_175 0
yt_175 0
s_270 0
xt_178 0
yt_178 0
s_271 0
xt_179 0
yt_179 0
s_272 0
s_273 0
xt_181 0
yt_181 0
s_274 0
xt_183 0
yt_183 0
s_275 0
xt_189 0
yt_189 0
s_276 0
s_277 0
xt_190 0
yt_190 0
s_278 0
xt_191 0
yt_191 0
s_279 0
xt_192 0
yt_192 0
s_280 0
xt_193 0.1
yt_193 0
s_281 0
s_282 0
s_283 0
s_284 0
s_285 0
s_286 0
s_287 2.9919999999999902e+00
s_288 0
xt_194 0
yt_194 0
s_289 0
xt_199 0
yt_199 0
s_290 0
s_291 0
s_292 0
s_293 0
xt_200 0
yt_200 0
s_294 0
xt_202 0
yt_202 0
s_295 0
xt_205 0
yt_205 0
s_296 0
xt_206 0
yt_206 0
s_297 0
s_298 0
s_299 0
s_300 0
s_301 0
xt_207 0
yt_207 0
s_302 0
xt_215 0
yt_215 3.3900000000002706e-02
s_303 0
s_304 0
s_305 0
s_306 0
s_307 0
s_308 0
s_309 0
s_310 0
s_311 0
s_312 0
s_313 0
s_314 0
s_315 0
s_316 0
xt_216 0
yt_216 0
s_317 0
xt_218 0
yt_218 0
s_318 0
xt_222 0
yt_222 0
s_319 0
s_320 0
xt_223 0
yt_223 0
s_321 0
s_322 0
s_323 0
xt_224 0
yt_224 0
s_324 0
s_325 0
xt_225 0
yt_225 0
s_326 0
s_327 0
s_328 0
xt_226 0
yt_226 0
s_329 0
s_330 0
xt_227 0
yt_227 0
s_331 0
xt_228 0
yt_228 0
s_332 0
s_333 0
xt_229 0
yt_229 0
s_334 0
s_335 0
xt_231 0
yt_231 0
s_336 0
xt_232 0
yt_232 0
s_337 0
s_338 0
s_339 0
s_340 0
s_341 0
s_342 0
xt_233 0
yt_233 0
s_343 0
s_344 0
s_345 0
s_346 0
xt_234 0
yt_234 0
s_347 0
s_348 0
s_349 0
s_350 0
s_351 0
xt_235 0
yt_235 0
s_352 0
s_353 0
s_354 0
xt_238 0
yt_238 0
s_355 0
s_356 0
s_357 0
xt_239 0
yt_239 0
s_358 0
s_359 0
s_360 0
s_361 0
s_362 0
xt_240 0
yt_240 0
s_363 0
xt_245 0
yt_245 0
s_364 0
xt_246 0
yt_246 0
s_365 0
s_366 0
s_367 0
xt_247 0
yt_247 0
s_368 0
s_369 0
s_370 0
s_371 0
xt_248 0
yt_248 0
s_372 0
s_373 0
s_374 0
s_375 0
xt_249 0
yt_249 0
s_376 0
y_17 108.61
x_17 150.33
y_19 107.439
x_19 150.636
y_23 96.9264
x_23 164.554
y_24 102.169
x_24 159.224
y_26 96.901
x_26 164.986
y_27 107.086
x_27 151.143
y_32 108.509
x_32 152.362
y_35 108.509
x_35 151.549
y_36 108.102
x_36 153.683
y_37 102.514
x_37 161.811
y_39 107.802
x_39 1.5084300000000002e+02
y_44 111.369
x_44 155.03
y_46 113.182
x_46 156.223
y_47 113.996
x_47 156.329
y_48 114.402
x_48 157.442
y_49 113.995
x_49 158.383
y_50 113.182
x_50 158.661
y_51 1.1045100000000002e+02
x_51 160.565
y_52 108.712
x_52 165.265
y_56 102.616
x_56 171.056
y_61 109.322
x_61 143.523
y_62 109.404
x_62 141.545
y_68 108.915
x_68 146.858
y_72 111.134
x_72 139.562
y_74 109.506
x_74 141.444
y_76 113.182
x_76 127.165
y_77 114.808
x_77 132.042
y_78 113.995
x_78 136.106
y_82 113.809
x_82 168.92
y_83 115.214
x_83 158.661
y_84 114.602
x_84 149.195
y_85 112.776
x_85 148.501
y_86 111.15
x_86 147.688
y_89 110.744
x_89 153.378
y_91 112.065
x_91 138.036
y_94 111.15
x_94 152.971
y_106 109.166
x_106 161.101
y_108 113.055
x_108 157.416
y_111 109.728
x_111 165.367
y_112 111.43
x_112 161.633
y_116 107.696
x_116 165.57
y_117 107.696
x_117 162.014
y_118 110.414
x_118 157.569
y_120 107.396
x_120 163.441
y_129 110.338
x_129 149.167
y_130 110.744
x_130 149.923
y_133 106.883
x_133 168.618
y_134 109.118
x_134 169.024
y_135 111.455
x_135 168.516
y_136 111.963
x_136 164.96
y_137 1.1209700000000001e+02
x_137 161.479
y_138 113.182
x_138 161.1
y_139 114.2
x_139 160.79
y_140 114.808
x_140 157.34
y_141 114.2
x_141 154.063
y_142 113.182
x_142 153.581
y_143 111.963
x_143 152.768
y_146 103.327
x_146 154.089
y_147 100.109
x_147 152.971
y_148 97.7376
x_148 1.5337740000000002e+02
y_149 96.9264
x_149 153.581
y_150 95.821
x_150 153.859
y_151 95.7072
x_151 158.661
y_152 9.5821099999999987e+01
x_152 163.463
y_153 97.1296
x_153 163.741
y_154 100.178
x_154 166.179
y_155 104.343
x_155 168.618
y_156 106.274
x_156 168.415
y_159 113.182
x_159 131.432
y_160 113.793
x_160 130.716
y_161 114.402
x_161 129.4
y_162 113.284
x_162 127.78
y_163 111.354
x_163 126.759
y_164 103.124
x_164 133.875
y_165 95.7072
x_165 147.18
y_166 95.8211
x_166 153.303
y_167 113.157
x_167 131.915
y_175 102.006
x_175 155.41
y_178 103.429
x_178 158.864
y_179 102.819
x_179 156.832
y_181 102.851
x_181 155.321
y_183 98.933
x_183 155.55
y_189 107.899
x_189 143.523
y_190 107.893
x_190 141.545
y_191 107.893
x_191 145.526
y_192 107.899
x_192 138.036
y_193 110.515
x_193 131.767
y_194 107.893
x_194 141.444
y_199 100.686
x_199 146.571
y_200 102.921
x_200 147.485
y_202 104.242
x_202 147.582
y_205 103.632
x_205 145.656
y_206 105.156
x_206 145.961
y_207 105.461
x_207 146.875
y_215 1.0492210000000000e+02
x_215 144.751
y_216 103.632
x_216 142.405
y_218 103.619
x_218 141.508
y_222 105.156
x_222 149.212
y_223 102.311
x_223 146.469
y_224 101.092
x_224 146.368
y_225 100.99
x_225 143.421
y_226 101.803
x_226 139.764
y_227 103.632
x_227 138.951
y_228 105.258
x_228 139.56
y_229 105.867
x_229 141.897
y_231 105.943
x_231 143.713
y_232 104.827
x_232 147.649
y_233 104.789
x_233 146.332
y_234 104.178
x_234 146.294
y_235 103.511
x_235 146.387
y_238 98.2472
x_238 153.988
y_239 97.3074
x_239 154.419
y_240 98.8314
x_240 153.975
y_245 109.614
x_245 155.25
y_246 107.086
x_246 154.8
y_247 105.867
x_247 154.394
y_248 104.648
x_248 153.988
y_249 104.242
x_249 153.23
